WARNING: for repeatability, setting FPU to use double precision
============================[ Problem Statistics ]=============================
|                                                                             |
|  Number of variables:           100                                         |
|  Number of clauses:             449                                         |
|  Parse time:                   0.00 s                                       |
|  Eliminated clauses:           0.00 Mb                                      |
|  Simplification time:          0.00 s                                       |
|                                                                             |
============================[ Search Statistics ]==============================
| Conflicts |          ORIGINAL         |          LEARNT          | Progress |
|           |    Vars  Clauses Literals |    Limit  Clauses Lit/Cl |          |
===============================================================================
|       100 |      96      426     1286 |      161       40      6 |  1.010 % |
===============================================================================
restarts              : 3
conflicts             : 231            (73124 /sec)
decisions             : 277            (0.00 % random) (87686 /sec)
propagations          : 5308           (1680279 /sec)
conflict literals     : 1254           (26.97 % deleted)
Memory used           : 13.00 MB
CPU time              : 0.003159 s

SATISFIABLE
